nNurses = 129;
nHours = 32;
minHours = 6;
maxHours = 19;
maxConsec = 13;
maxPresence = 29;
demand = [19, 20, 24, 19, 21, 19, 21, 19, 23, 24, 27, 30, 31, 30, 30, 26, 26, 25, 30, 26, 21, 20, 17, 13, 18, 13, 16, 18, 20, 23, 21, 23];
